 vasp.6.5.0 16Dec24 (build Feb 18 2025 08:57:40) complex
 executed on             LinuxGNU date 2025.05.31  17:13:22

 INCAR:
   SYSTEM = Si DFT unoccupied states
   ISMEAR = 0
   SIGMA = 0.05
   ENCUT = 400
   NBANDS = 64
   ALGO = Exact
   NELM = 1
   LOPTICS = T

 POTCAR:    PAW_PBE Si_GW 04May2012
 POTCAR:    PAW_PBE Si_GW 04May2012
   VRHFIN =Si: s2p2

   TITEL  = PAW_PBE Si_GW 04May2012
   POMASS =   28.085; ZVAL   =    4.000    mass and valenz
   ENMAX  =  245.345; ENMIN  =  184.009 eV

  PAW_PBE Si_GW 04May2012               :

 POSCAR: cd Si
  positions in cartesian coordinates

 exchange-correlation table for PE
   RHO(1)=    0.500       N(1)  =     2000
   RHO(2)=  100.500       N(2)  =     4000

 ion  position               nearest neighbor table
   1  0.000  0.000  0.000-   2 2.35   2 2.35   2 2.35   2 2.35
   2  0.250  0.250  0.250-   1 2.35   1 2.35   1 2.35   1 2.35

  LATTYP: Found a face centered cubic cell.
 ALAT       =     5.4300000000

  Lattice vectors:

 A1 = (   2.7150000000,   2.7150000000,   0.0000000000)
 A2 = (   0.0000000000,   2.7150000000,   2.7150000000)
 A3 = (   2.7150000000,   0.0000000000,   2.7150000000)

Analysis of symmetry for initial positions (statically):
 Subroutine PRICEL returns:
 Original cell was already a primitive cell.

 Routine SETGRP: Setting up the symmetry group for a
 face centered cubic supercell.

 Subroutine GETGRP returns: Found 48 space group operations
 (whereof 24 operations were pure point group operations)
 out of a pool of 48 trial point group operations.

The static configuration has the point symmetry T_d .
 The point group associated with its full space group is O_h .

Analysis of symmetry for dynamics (positions and initial velocities):
 Subroutine PRICEL returns:
 Original cell was already a primitive cell.

 Routine SETGRP: Setting up the symmetry group for a
 face centered cubic supercell.

 Subroutine GETGRP returns: Found 48 space group operations
 (whereof 24 operations were pure point group operations)
 out of a pool of 48 trial point group operations.

The dynamic configuration has the point symmetry T_d .
 The point group associated with its full space group is O_h .

 Subroutine INISYM returns: Found 48 space group operations
 (whereof 24 operations are pure point group operations),
 and found     1 'primitive' translations

                                     Primitive cell

  volume of cell :      40.0258

  direct lattice vectors                    reciprocal lattice vectors
     2.715000000  2.715000000  0.000000000     0.184162063  0.184162063 -0.184162063
     0.000000000  2.715000000  2.715000000    -0.184162063  0.184162063  0.184162063
     2.715000000  0.000000000  2.715000000     0.184162063 -0.184162063  0.184162063

  length of vectors
     3.839589822  3.839589822  3.839589822     0.318978049  0.318978049  0.318978049

  position of ions in fractional coordinates (direct lattice)
     0.000000000  0.000000000  0.000000000
     0.250000000  0.250000000  0.250000000

  ion indices of the primitive-cell ions
   primitive index   ion index
                 1           1
                 2           2

 KPOINTS: k mesh

Automatic generation of k-mesh.
 Grid dimensions read from file:
 generate k-points for:    6    6    6

 Generating k-lattice:

  Cartesian coordinates                     Fractional coordinates (reciprocal lattice)
     0.030693677  0.030693677 -0.030693677     0.166666667  0.000000000  0.000000000
    -0.030693677  0.030693677  0.030693677     0.000000000  0.166666667 -0.000000000
     0.030693677 -0.030693677  0.030693677    -0.000000000 -0.000000000  0.166666667

  Length of vectors
     0.053163008  0.053163008  0.053163008

  Shift w.r.t. Gamma in fractional coordinates (k-lattice)
     0.000000000  0.000000000  0.000000000

 Subroutine IBZKPT returns following result:

 Found     16 irreducible k-points:

 Following reciprocal coordinates:
            Coordinates               Weight
  0.000000  0.000000  0.000000      1.000000
  0.166667  0.000000  0.000000      8.000000
  0.333333  0.000000  0.000000      8.000000
  0.500000  0.000000  0.000000      4.000000
  0.166667  0.166667  0.000000      6.000000
  0.333333  0.166667  0.000000     24.000000
  0.500000  0.166667  0.000000     24.000000
 -0.333333  0.166667  0.000000     24.000000
 -0.166667  0.166667  0.000000     12.000000
  0.333333  0.333333  0.000000      6.000000
  0.500000  0.333333  0.000000     24.000000
 -0.333333  0.333333  0.000000     12.000000
  0.500000  0.500000  0.000000      3.000000
  0.500000  0.333333  0.166667     24.000000
 -0.333333  0.333333  0.166667     24.000000
 -0.333333  0.500000  0.166667     12.000000

 Following cartesian coordinates:
            Coordinates               Weight
  0.000000  0.000000  0.000000      1.000000
  0.166667  0.166667 -0.166667      8.000000
  0.333333  0.333333 -0.333333      8.000000
  0.500000  0.500000 -0.500000      4.000000
  0.000000  0.333333  0.000000      6.000000
  0.166667  0.500000 -0.166667     24.000000
  0.333333  0.666667 -0.333333     24.000000
 -0.500000 -0.166667  0.500000     24.000000
 -0.333333  0.000000  0.333333     12.000000
  0.000000  0.666667  0.000000      6.000000
  0.166667  0.833333 -0.166667     24.000000
 -0.666667  0.000000  0.666667     12.000000
  0.000000  1.000000  0.000000      3.000000
  0.333333  0.666667  0.000000     24.000000
 -0.500000 -0.166667  0.833333     24.000000
 -0.666667  0.000000  1.000000     12.000000

 SYSTEM =  Si DFT unoccupied states
 POSCAR =  cd Si

 Startparameter for this run:
   NWRITE =      2    write-flag & timer
   PREC   = normal    normal or accurate (medium, high low for compatibility)
   ISTART =      0    job   : 0-new  1-cont  2-samecut
   ICHARG =      2    charge: 1-file 2-atom 10-const
   ISPIN  =      1    spin polarized calculation?
   LNONCOLLINEAR =      F non collinear calculations
   LSORBIT =      F    spin-orbit coupling
   INIWAV =      1    electr: 0-lowe 1-rand  2-diag
   LASPH  =      F    aspherical Exc in radial PAW
 Electronic Relaxation 1
   ENCUT  =  400.0 eV  29.40 Ry    5.42 a.u.   6.26  6.26  6.26*2*pi/ulx,y,z
   ENINI  =  400.0     initial cutoff
   ENAUG  =  413.0 eV  augmentation charge cutoff
   NELM   =      1;   NELMIN=  2; NELMDL= -5     # of ELM steps
   EDIFF  = 0.1E-03   stopping-criterion for ELM
   LREAL  =      F    real-space projection
   NLSPLINE    = F    spline interpolate recip. space projectors
   LCOMPAT=      F    compatible to vasp.4.4
   GGA_COMPAT  = T    GGA compatible to vasp.4.4-vasp.4.6
   LMAXPAW     = -100 max onsite density
   LMAXMIX     =    2 max onsite mixed and CHGCAR
   VOSKOWN=      0    Vosko Wilk Nusair interpolation
   ROPT   =    0.00000
 Ionic relaxation
   EDIFFG = 0.1E-02   stopping-criterion for IOM
   NSW    =      0    number of steps for IOM
   NBLOCK =      1;   KBLOCK =      1    inner block; outer block
   IBRION =     -1    ionic relax: 0-MD 1-quasi-New 2-CG
   NFREE  =      0    steps in history (QN), initial steepest desc. (CG)
   ISIF   =      2    stress and relaxation
   IWAVPR =     10    prediction:  0-non 1-charg 2-wave 3-comb
   ISYM   =      2    0-nonsym 1-usesym 2-fastsym
   LCORR  =      T    Harris-Foulkes like correction to forces

   POTIM  = 0.5000    time-step for ionic-motion
   TEIN   =    0.0    initial temperature
   TEBEG  =    0.0;   TEEND  =   0.0 temperature during run
   SMASS  =  -3.00    Nose mass-parameter (am)
   estimated Nose-frequenzy (Omega)   =  0.10E-29 period in steps = 0.13E+47 mass=  -0.337E-27a.u.
   SCALEE = 1.0000    scale energy and forces
   NPACO  =    256;   APACO  = 10.0  distance and # of slots for P.C.
   PSTRESS=    0.0 pullay stress

  Mass of Ions in am
   POMASS =  28.09
  Ionic Valenz
   ZVAL   =   4.00
  Atomic Wigner-Seitz radii
  virtual crystal weights
   VCA    =   1.00
   NELECT =       8.0000    total number of electrons
   NUPDOWN=      -1.0000    fix difference up-down

 DOS related values:
   EMIN   =  10.00;   EMAX   =-10.00  energy-range for DOS
   EFERMI =   0.00;   METHOD = LEGACY
   ISMEAR =     0;   SIGMA  =   0.05  broadening in eV -4-tet -1-fermi 0-gaus
   EFERMI_NEDOS =   21; number of points for ismear=-14 and -15

 Electronic relaxation 2 (details)
   IALGO  =     90    algorithm
   LDIAG  =      T    sub-space diagonalisation (order eigenvalues)
   LSUBROT=      F    optimize rotation matrix (better conditioning)
   TURBO    =      0    0=normal 1=particle mesh
   IRESTART =      0    0=no restart 2=restart with 2 vectors
   NREBOOT  =      0    no. of reboots
   NMIN     =      0    reboot dimension
   EREF     =   0.00    reference energy to select bands
   IMIX   =      4    mixing-type and parameters
     AMIX     =   0.40;   BMIX     =  1.00
     AMIX_MAG =   1.60;   BMIX_MAG =  1.00
     AMIN     =   0.10
     WC   =   100.;   INIMIX=   1;  MIXPRE=   1;  MAXMIX= -45

 Intra band minimization:
   WEIMIN = 0.0000     energy-eigenvalue tresh-hold
   EBREAK =  0.39E-06  absolut break condition
   DEPER  =   0.30     relativ break condition

   TIME   =   0.40     timestep for ELM

  volume/ion in A,a.u.               =      20.01       135.05
  Fermi-wavevector in a.u.,A,eV,Ry     =   0.957176  1.808800 12.465458  0.916185
  Thomas-Fermi vector in A             =   2.086170

 Write flags
   LWAVE        =      T    write WAVECAR
   LDOWNSAMPLE  =      F    k-point downsampling of WAVECAR
   LCHARG       =      T    write CHGCAR
   LVTOT        =      F    write LOCPOT, total local potential
   LVHAR        =      F    write LOCPOT, Hartree potential only
   WRT_POTENTIAL= false  ! write potential to hdf5 file
   LELF         =      F    write electronic localiz. function (ELF)
   LORBIT       =      0    0 simple, 1 ext, 2 COOP (PROOUT), +10 PAW based schemes

 Python interface
   PLUGINS active      =      F    recompile with -DPLUGINS to activate

 Dipole corrections
   LMONO      =      F    monopole corrections only (constant potential shift)
   LDIPOL     =      F    correct potential (dipole corrections)
   IDIPOL     =      0    1-x, 2-y, 3-z, 4-all directions
   EPSILON    =  1.0000000 bulk dielectric constant
   LVACPOTAV  =      F  vacuum potentials using an averaging scheme for the charge density
   VACPOTFLAT =  0.1000000 required flatness to determine vacuum potential

Coulomb truncation method
  LTRUNCATE          =      F  Coulomb kernel truncation to be used
  IDIMENSIONALITY    =      3  Dimensionality of cutoff (0 molecules / 2 surfaces)
  ISURFACE           =     -1  Direction of surface normal
  LCOARSEN           =      F  Coarsen the charge grid before padding, preferred

 Exchange correlation treatment:
   GGA     = PE    functional components
   XC_C    = 1    coefficients multiplying the functional components
   VOSKOWN =     0    Vosko Wilk Nusair interpolation
   LHFCALC =     F    Hartree Fock is set to
   LHFONE  =     F    Hartree Fock one center treatment
   AEXX    =    0.0000 exact exchange contribution

 Parameters of functionals:
   PE:
     No parameter

 Van der Waals corrections
   IVDW    =     0    specifies the selected vdW correction

 Linear response parameters
[...]
   32.275200    0.751595    0.751595    0.751595    0.000000    0.000000   -0.000000
   33.253237    0.768202    0.768202    0.768202    0.000000    0.000000   -0.000000
   34.231273    0.775584    0.775584    0.775584    0.000000    0.000000   -0.000000
   35.209309    0.785318    0.785318    0.785318    0.000000    0.000000   -0.000000
   36.187346    0.798233    0.798233    0.798233    0.000000    0.000000   -0.000000
   37.165382    0.815263    0.815263    0.815263    0.000000    0.000000   -0.000000
   38.143418    0.818817    0.818817    0.818817    0.000000    0.000000   -0.000000
   39.121455    0.822125    0.822125    0.822125    0.000000    0.000000   -0.000000
   40.099491    0.826566    0.826566    0.826566    0.000000    0.000000   -0.000000
   41.077528    0.839826    0.839826    0.839826    0.000000    0.000000   -0.000000
   42.055564    0.841626    0.841626    0.841626    0.000000    0.000000   -0.000000
   43.033600    0.853941    0.853941    0.853941    0.000000    0.000000   -0.000000
   44.011637    0.858299    0.858299    0.858299    0.000000    0.000000   -0.000000
   44.989673    0.867868    0.867868    0.867868    0.000000    0.000000   -0.000000
   45.967709    0.872879    0.872879    0.872879    0.000000    0.000000   -0.000000
   46.945746    0.873973    0.873973    0.873973    0.000000    0.000000   -0.000000
   47.923782    0.888970    0.888970    0.888970    0.000000    0.000000   -0.000000
   48.901818    0.885387    0.885387    0.885387    0.000000    0.000000   -0.000000
   49.879855    0.885935    0.885935    0.885935    0.000000    0.000000   -0.000000
   50.857891    0.892011    0.892011    0.892011    0.000000    0.000000   -0.000000
   51.835928    0.897639    0.897639    0.897639    0.000000    0.000000   -0.000000
   52.813964    0.900699    0.900699    0.900699    0.000000    0.000000   -0.000000
   53.792000    0.905461    0.905461    0.905461    0.000000    0.000000   -0.000000
   54.770037    0.907671    0.907671    0.907671    0.000000    0.000000   -0.000000
   55.748073    0.909179    0.909179    0.909179    0.000000    0.000000   -0.000000
   56.726109    0.914538    0.914538    0.914538    0.000000    0.000000   -0.000000
   57.704146    0.917431    0.917431    0.917431    0.000000    0.000000   -0.000000
[...]
   83.133091    0.958542    0.958542    0.958542    0.000000    0.000000   -0.000000
   84.111128    0.959580    0.959580    0.959580    0.000000    0.000000   -0.000000
   85.089164    0.960574    0.960574    0.960574    0.000000    0.000000   -0.000000
   86.067201    0.961527    0.961527    0.961527    0.000000    0.000000   -0.000000
   87.045237    0.962443    0.962443    0.962443    0.000000    0.000000   -0.000000
   88.023273    0.963324    0.963324    0.963324    0.000000    0.000000   -0.000000
   89.001310    0.964171    0.964171    0.964171    0.000000    0.000000   -0.000000
   89.979346    0.964988    0.964988    0.964988    0.000000    0.000000   -0.000000
   90.957382    0.965775    0.965775    0.965775    0.000000    0.000000   -0.000000
   91.935419    0.966534    0.966534    0.966534    0.000000    0.000000   -0.000000
   92.913455    0.967267    0.967267    0.967267    0.000000    0.000000   -0.000000
   93.891491    0.967975    0.967975    0.967975    0.000000    0.000000   -0.000000
   94.869528    0.968659    0.968659    0.968659    0.000000    0.000000   -0.000000
   95.847564    0.969321    0.969321    0.969321    0.000000    0.000000   -0.000000
   96.825601    0.969961    0.969961    0.969961    0.000000    0.000000   -0.000000

  frequency dependent IMAGINARY DIELECTRIC FUNCTION (independent particle, no local field effects) current-current
     E(ev)      X         Y         Z        XY        YZ        ZX
    0.000000   28.506069   28.506069   28.506069   -0.000000   -0.000000    0.000000
    0.978036    3.321550    3.321550    3.321550   -0.000000   -0.000000    0.000000
    1.956073    3.116854    3.116854    3.116854   -0.000000   -0.000000    0.000000
    2.934109   41.630666   41.630666   41.630666   -0.000000    0.000000    0.000000
    3.912145   80.708311   80.708311   80.708311   -0.000000   -0.000000    0.000000
    4.890182    6.192904    6.192904    6.192904   -0.000000   -0.000000    0.000000
    5.868218    4.672211    4.672211    4.672211   -0.000000   -0.000000    0.000000
    6.846255    4.702673    4.702673    4.702673   -0.000000    0.000000    0.000000
    7.824291    2.541611    2.541611    2.541611   -0.000000    0.000000    0.000000
    8.802327    1.734725    1.734725    1.734725   -0.000000    0.000000    0.000000
    9.780364    0.797927    0.797927    0.797927   -0.000000   -0.000000    0.000000
   10.758400    0.506379    0.506379    0.506379   -0.000000   -0.000000    0.000000
   11.736436    0.359497    0.359497    0.359497   -0.000000    0.000000    0.000000
   12.714473    0.493578    0.493578    0.493578   -0.000000    0.000000    0.000000
   13.692509    0.447613    0.447613    0.447613   -0.000000    0.000000    0.000000
   14.670546    0.381513    0.381513    0.381513   -0.000000    0.000000    0.000000
   15.648582    0.193650    0.193650    0.193650   -0.000000   -0.000000    0.000000
   16.626618    0.098307    0.098307    0.098307   -0.000000   -0.000000    0.000000
   17.604655    0.073721    0.073721    0.073721   -0.000000   -0.000000    0.000000
   18.582691    0.084628    0.084628    0.084628   -0.000000    0.000000    0.000000
   19.560727    0.095082    0.095082    0.095082   -0.000000   -0.000000    0.000000
   20.538764    0.039624    0.039624    0.039624   -0.000000   -0.000000    0.000000
   21.516800    0.040030    0.040030    0.040030   -0.000000    0.000000    0.000000
   22.494836    0.031153    0.031153    0.031153   -0.000000    0.000000    0.000000
   23.472873    0.016091    0.016091    0.016091   -0.000000   -0.000000    0.000000
   24.450909    0.028211    0.028211    0.028211   -0.000000    0.000000    0.000000
   25.428946    0.025849    0.025849    0.025849   -0.000000    0.000000    0.000000
   26.406982    0.021468    0.021468    0.021468   -0.000000   -0.000000    0.000000
   27.385018    0.014598    0.014598    0.014598   -0.000000   -0.000000    0.000000
   28.363055    0.014119    0.014119    0.014119   -0.000000    0.000000    0.000000
   29.341091    0.027193    0.027193    0.027193   -0.000000    0.000000    0.000000
   30.319127    0.023497    0.023497    0.023497   -0.000000    0.000000    0.000000
   31.297164    0.012378    0.012378    0.012378   -0.000000   -0.000000    0.000000
   32.275200    0.009573    0.009573    0.009573   -0.000000    0.000000    0.000000
   33.253237    0.026354    0.026354    0.026354   -0.000000    0.000000    0.000000
   34.231273    0.026412    0.026412    0.026412   -0.000000    0.000000    0.000000
   35.209309    0.019476    0.019476    0.019476   -0.000000   -0.000000    0.000000
   36.187346    0.020420    0.020420    0.020420   -0.000000   -0.000000    0.000000
   37.165382    0.016282    0.016282    0.016282   -0.000000    0.000000    0.000000
   38.143418    0.027980    0.027980    0.027980   -0.000000    0.000000    0.000000
   39.121455    0.027674    0.027674    0.027674   -0.000000   -0.000000    0.000000
   40.099491    0.026402    0.026402    0.026402   -0.000000    0.000000    0.000000
   41.077528    0.014016    0.014016    0.014016   -0.000000   -0.000000    0.000000
   42.055564    0.018001    0.018001    0.018001   -0.000000   -0.000000    0.000000
   43.033600    0.008779    0.008779    0.008779   -0.000000   -0.000000    0.000000
   44.011637    0.012211    0.012211    0.012211   -0.000000   -0.000000    0.000000
   44.989673    0.011303    0.011303    0.011303   -0.000000   -0.000000    0.000000
   45.967709    0.026658    0.026658    0.026658   -0.000000   -0.000000    0.000000
   46.945746    0.010194    0.010194    0.010194   -0.000000   -0.000000    0.000000
   47.923782    0.021785    0.021785    0.021785   -0.000000   -0.000000    0.000000
   48.901818    0.012065    0.012065    0.012065   -0.000000   -0.000000    0.000000
   49.879855    0.010020    0.010020    0.010020   -0.000000    0.000000    0.000000
   50.857891    0.011351    0.011351    0.011351   -0.000000   -0.000000    0.000000
   51.835928    0.006032    0.006032    0.006032   -0.000000    0.000000    0.000000
   52.813964    0.007302    0.007302    0.007302   -0.000000    0.000000    0.000000
   53.792000    0.006137    0.006137    0.006137   -0.000000    0.000000    0.000000
   54.770037    0.010043    0.010043    0.010043   -0.000000   -0.000000    0.000000
   55.748073    0.007941    0.007941    0.007941   -0.000000    0.000000    0.000000
   56.726109    0.006166    0.006166    0.006166   -0.000000    0.000000    0.000000
   57.704146    0.007530    0.007530    0.007530   -0.000000   -0.000000    0.000000
[...]
   83.133091    0.000009    0.000009    0.000009   -0.000000   -0.000000    0.000000
   84.111128    0.000008    0.000008    0.000008   -0.000000   -0.000000    0.000000
   85.089164    0.000007    0.000007    0.000007   -0.000000   -0.000000    0.000000
   86.067201    0.000006    0.000006    0.000006   -0.000000   -0.000000    0.000000
   87.045237    0.000006    0.000006    0.000006   -0.000000   -0.000000    0.000000
   88.023273    0.000005    0.000005    0.000005   -0.000000   -0.000000    0.000000
   89.001310    0.000005    0.000005    0.000005   -0.000000   -0.000000    0.000000
   89.979346    0.000004    0.000004    0.000004   -0.000000   -0.000000    0.000000
   90.957382    0.000004    0.000004    0.000004   -0.000000   -0.000000    0.000000
   91.935419    0.000003    0.000003    0.000003   -0.000000   -0.000000    0.000000
   92.913455    0.000003    0.000003    0.000003   -0.000000   -0.000000    0.000000
   93.891491    0.000003    0.000003    0.000003   -0.000000   -0.000000    0.000000
   94.869528    0.000003    0.000003    0.000003   -0.000000   -0.000000    0.000000
   95.847564    0.000003    0.000003    0.000003   -0.000000   -0.000000    0.000000
   96.825601    0.000002    0.000002    0.000002   -0.000000   -0.000000    0.000000

  frequency dependent      REAL DIELECTRIC FUNCTION (independent particle, no local field effects) current-current
     E(ev)        X           Y           Z          XY          YZ          ZX
    0.000000   14.887338   14.887338   14.887338   -0.000000   -0.000000    0.000000
    0.978036   15.974758   15.974758   15.974758   -0.000000   -0.000000    0.000000
    1.956073   21.116971   21.116971   21.116971   -0.000000   -0.000000    0.000000
    2.934109   11.966714   11.966714   11.966714    0.000000   -0.000000   -0.000000
    3.912145  -23.310886  -23.310886  -23.310886    0.000000    0.000000   -0.000000
    4.890182  -14.760472  -14.760472  -14.760472    0.000000    0.000000   -0.000000
    5.868218   -2.255352   -2.255352   -2.255352    0.000000    0.000000   -0.000000
    6.846255   -6.476106   -6.476106   -6.476106    0.000000    0.000000   -0.000000
    7.824291   -5.283162   -5.283162   -5.283162    0.000000    0.000000   -0.000000
    8.802327   -2.751928   -2.751928   -2.751928    0.000000    0.000000   -0.000000
    9.780364   -2.223912   -2.223912   -2.223912    0.000000    0.000000   -0.000000
   10.758400   -1.805276   -1.805276   -1.805276    0.000000    0.000000   -0.000000
   11.736436   -1.273661   -1.273661   -1.273661    0.000000    0.000000   -0.000000
   12.714473   -0.872595   -0.872595   -0.872595    0.000000    0.000000   -0.000000
   13.692509   -0.770412   -0.770412   -0.770412    0.000000    0.000000   -0.000000
   14.670546   -0.358144   -0.358144   -0.358144    0.000000    0.000000   -0.000000
   15.648582   -0.229660   -0.229660   -0.229660    0.000000    0.000000   -0.000000
   16.626618   -0.083381   -0.083381   -0.083381    0.000000    0.000000   -0.000000
   17.604655    0.051241    0.051241    0.051241    0.000000    0.000000   -0.000000
   18.582691    0.201474    0.201474    0.201474    0.000000    0.000000   -0.000000
   19.560727    0.233121    0.233121    0.233121    0.000000    0.000000   -0.000000
   20.538764    0.347033    0.347033    0.347033    0.000000    0.000000   -0.000000
   21.516800    0.372993    0.372993    0.372993    0.000000    0.000000   -0.000000
   22.494836    0.453038    0.453038    0.453038    0.000000    0.000000   -0.000000
   23.472873    0.509803    0.509803    0.509803    0.000000    0.000000   -0.000000
   24.450909    0.543451    0.543451    0.543451    0.000000    0.000000   -0.000000
   25.428946    0.573006    0.573006    0.573006    0.000000    0.000000   -0.000000
   26.406982    0.606362    0.606362    0.606362    0.000000    0.000000   -0.000000
   27.385018    0.647982    0.647982    0.647982    0.000000    0.000000   -0.000000
   28.363055    0.672448    0.672448    0.672448    0.000000    0.000000   -0.000000
   29.341091    0.690035    0.690035    0.690035    0.000000    0.000000   -0.000000
   30.319127    0.707638    0.707638    0.707638    0.000000    0.000000   -0.000000
   31.297164    0.730096    0.730096    0.730096    0.000000    0.000000   -0.000000
   32.275200    0.751635    0.751635    0.751635    0.000000    0.000000   -0.000000
   33.253237    0.768129    0.768129    0.768129    0.000000    0.000000   -0.000000
   34.231273    0.775511    0.775511    0.775511    0.000000    0.000000   -0.000000
   35.209309    0.785288    0.785288    0.785288    0.000000    0.000000   -0.000000
   36.187346    0.798198    0.798198    0.798198    0.000000    0.000000   -0.000000
   37.165382    0.815251    0.815251    0.815251    0.000000    0.000000   -0.000000
   38.143418    0.818732    0.818732    0.818732    0.000000    0.000000   -0.000000
   39.121455    0.822047    0.822047    0.822047    0.000000    0.000000   -0.000000
   40.099491    0.826494    0.826494    0.826494    0.000000    0.000000   -0.000000
   41.077528    0.839821    0.839821    0.839821    0.000000    0.000000   -0.000000
   42.055564    0.841601    0.841601    0.841601    0.000000    0.000000   -0.000000
   43.033600    0.853959    0.853959    0.853959    0.000000    0.000000   -0.000000
   44.011637    0.858297    0.858297    0.858297    0.000000    0.000000   -0.000000
   44.989673    0.867868    0.867868    0.867868    0.000000    0.000000   -0.000000
   45.967709    0.872803    0.872803    0.872803    0.000000    0.000000   -0.000000
   46.945746    0.873974    0.873974    0.873974    0.000000    0.000000   -0.000000
   47.923782    0.888920    0.888920    0.888920    0.000000    0.000000   -0.000000
   48.901818    0.885380    0.885380    0.885380    0.000000    0.000000   -0.000000
   49.879855    0.885936    0.885936    0.885936    0.000000    0.000000   -0.000000
   50.857891    0.892006    0.892006    0.892006    0.000000    0.000000   -0.000000
   51.835928    0.897653    0.897653    0.897653    0.000000    0.000000   -0.000000
   52.813964    0.900709    0.900709    0.900709    0.000000    0.000000   -0.000000
   53.792000    0.905473    0.905473    0.905473    0.000000    0.000000   -0.000000
   54.770037    0.907669    0.907669    0.907669    0.000000    0.000000   -0.000000
   55.748073    0.909183    0.909183    0.909183    0.000000    0.000000   -0.000000
   56.726109    0.914549    0.914549    0.914549    0.000000    0.000000   -0.000000
   57.704146    0.917436    0.917436    0.917436    0.000000    0.000000   -0.000000
[...]
   83.133091    0.958557    0.958557    0.958557    0.000000    0.000000   -0.000000
   84.111128    0.959595    0.959595    0.959595    0.000000    0.000000   -0.000000
   85.089164    0.960588    0.960588    0.960588    0.000000    0.000000   -0.000000
   86.067201    0.961541    0.961541    0.961541    0.000000    0.000000   -0.000000
   87.045237    0.962457    0.962457    0.962457    0.000000    0.000000   -0.000000
   88.023273    0.963337    0.963337    0.963337    0.000000    0.000000   -0.000000
   89.001310    0.964184    0.964184    0.964184    0.000000    0.000000   -0.000000
   89.979346    0.965001    0.965001    0.965001    0.000000    0.000000   -0.000000
   90.957382    0.965787    0.965787    0.965787    0.000000    0.000000   -0.000000
   91.935419    0.966546    0.966546    0.966546    0.000000    0.000000   -0.000000
   92.913455    0.967279    0.967279    0.967279    0.000000    0.000000   -0.000000
   93.891491    0.967987    0.967987    0.967987    0.000000    0.000000   -0.000000
   94.869528    0.968671    0.968671    0.968671    0.000000    0.000000   -0.000000
   95.847564    0.969332    0.969332    0.969332    0.000000    0.000000   -0.000000
   96.825601    0.969972    0.969972    0.969972    0.000000    0.000000   -0.000000

 The outermost node in the dielectric function lies at epsilon=  17.0