 vasp.6.5.0 16Dec24 (build Jun 01 2025 12:18:04) complex

 executed on             LinuxIFC date 2025.06.01  15:18:43

 INCAR:
   SYSTEM = cd Si GW0
   ENCUT = 400
   NBANDS = 64
   NELM = 1
   ALGO = NONE
   LWAVE = F
   LCHARG = F
   LWANNIER90 = T
   NUM_WANN = 8
   WANNIER90_WIN = "
exclude_bands = 17-64

Begin Projections
Si:sp3
End Projections

# Disentanglement
dis_win_min = -7
dis_win_max = 17
dis_num_iter = 100

guiding_centres = true
"

 POTCAR:    PAW_PBE Si_GW 04May2012
 POTCAR:    PAW_PBE Si_GW 04May2012
   VRHFIN =Si: s2p2

   TITEL  = PAW_PBE Si_GW 04May2012
   POMASS =   28.085; ZVAL   =    4.000    mass and valenz
   ENMAX  =  245.345; ENMIN  =  184.009 eV

  PAW_PBE Si_GW 04May2012               :

 POSCAR: cd Si
  positions in cartesian coordinates

 exchange-correlation table for PE
   RHO(1)=    0.500       N(1)  =     2000
   RHO(2)=  100.500       N(2)  =     4000

 ion  position               nearest neighbor table
   1  0.000  0.000  0.000-   2 2.35   2 2.35   2 2.35   2 2.35
   2  0.250  0.250  0.250-   1 2.35   1 2.35   1 2.35   1 2.35

  LATTYP: Found a face centered cubic cell.
 ALAT       =     5.4300000000

  Lattice vectors:

 A1 = (   2.7150000000,   2.7150000000,   0.0000000000)
 A2 = (   0.0000000000,   2.7150000000,   2.7150000000)
 A3 = (   2.7150000000,   0.0000000000,   2.7150000000)

Analysis of symmetry for initial positions (statically):
 Subroutine PRICEL returns:
 Original cell was already a primitive cell.

 Routine SETGRP: Setting up the symmetry group for a
 face centered cubic supercell.

 Subroutine GETGRP returns: Found 48 space group operations
 (whereof 24 operations were pure point group operations)
 out of a pool of 48 trial point group operations.

The static configuration has the point symmetry T_d .
 The point group associated with its full space group is O_h .

Analysis of symmetry for dynamics (positions and initial velocities):
 Subroutine PRICEL returns:
 Original cell was already a primitive cell.

 Routine SETGRP: Setting up the symmetry group for a
 face centered cubic supercell.

 Subroutine GETGRP returns: Found 48 space group operations
 (whereof 24 operations were pure point group operations)
 out of a pool of 48 trial point group operations.

The dynamic configuration has the point symmetry T_d .
 The point group associated with its full space group is O_h .

 Subroutine INISYM returns: Found 48 space group operations
 (whereof 24 operations are pure point group operations),
 and found     1 'primitive' translations

                                     Primitive cell

  volume of cell :      40.0258

  direct lattice vectors                    reciprocal lattice vectors
     2.715000000  2.715000000  0.000000000     0.184162063  0.184162063 -0.184162063
     0.000000000  2.715000000  2.715000000    -0.184162063  0.184162063  0.184162063
     2.715000000  0.000000000  2.715000000     0.184162063 -0.184162063  0.184162063

  length of vectors
     3.839589822  3.839589822  3.839589822     0.318978049  0.318978049  0.318978049

  position of ions in fractional coordinates (direct lattice)
     0.000000000  0.000000000  0.000000000
     0.250000000  0.250000000  0.250000000

  ion indices of the primitive-cell ions
   primitive index   ion index
                 1           1
                 2           2

 KPOINTS: k mesh

Automatic generation of k-mesh.
 Grid dimensions read from file:
 generate k-points for:    6    6    6

 Generating k-lattice:

  Cartesian coordinates                     Fractional coordinates (reciprocal lattice)
     0.030693677  0.030693677 -0.030693677     0.166666667  0.000000000  0.000000000
    -0.030693677  0.030693677  0.030693677    -0.000000000  0.166666667 -0.000000000
     0.030693677 -0.030693677  0.030693677     0.000000000 -0.000000000  0.166666667

  Length of vectors
     0.053163008  0.053163008  0.053163008

  Shift w.r.t. Gamma in fractional coordinates (k-lattice)
     0.000000000  0.000000000  0.000000000

 Subroutine IBZKPT returns following result:

 Found     16 irreducible k-points:

 Following reciprocal coordinates:
            Coordinates               Weight
  0.000000  0.000000  0.000000      1.000000
  0.166667  0.000000  0.000000      8.000000
  0.333333  0.000000  0.000000      8.000000
  0.500000  0.000000  0.000000      4.000000
  0.166667  0.166667  0.000000      6.000000
  0.333333  0.166667  0.000000     24.000000
  0.500000  0.166667  0.000000     24.000000
 -0.333333  0.166667  0.000000     24.000000
 -0.166667  0.166667  0.000000     12.000000
  0.333333  0.333333  0.000000      6.000000
  0.500000  0.333333  0.000000     24.000000
 -0.333333  0.333333  0.000000     12.000000
  0.500000  0.500000  0.000000      3.000000
  0.500000  0.333333  0.166667     24.000000
 -0.333333  0.333333  0.166667     24.000000
 -0.333333  0.500000  0.166667     12.000000

 Following cartesian coordinates:
            Coordinates               Weight
  0.000000  0.000000  0.000000      1.000000
  0.166667  0.166667 -0.166667      8.000000
  0.333333  0.333333 -0.333333      8.000000
  0.500000  0.500000 -0.500000      4.000000
  0.000000  0.333333  0.000000      6.000000
  0.166667  0.500000 -0.166667     24.000000
  0.333333  0.666667 -0.333333     24.000000
 -0.500000 -0.166667  0.500000     24.000000
 -0.333333  0.000000  0.333333     12.000000
  0.000000  0.666667  0.000000      6.000000
  0.166667  0.833333 -0.166667     24.000000
 -0.666667  0.000000  0.666667     12.000000
  0.000000  1.000000  0.000000      3.000000
  0.333333  0.666667  0.000000     24.000000
 -0.500000 -0.166667  0.833333     24.000000
 -0.666667  0.000000  1.000000     12.000000

 Subroutine IBZKPT_HF returns following result:

 Found    216 k-points in 1st BZ
 the following    216 k-points will be used (e.g. in the exchange kernel)
 Following reciprocal coordinates:   # in IRBZ
  0.000000  0.000000  0.000000    0.00462963   1 t-inv F
  0.166667  0.000000  0.000000    0.00462963   2 t-inv F
  0.333333  0.000000  0.000000    0.00462963   3 t-inv F
  0.500000  0.000000  0.000000    0.00462963   4 t-inv F
  0.166667  0.166667  0.000000    0.00462963   5 t-inv F
  0.333333  0.166667  0.000000    0.00462963   6 t-inv F
  0.500000  0.166667  0.000000    0.00462963   7 t-inv F
 -0.333333  0.166667  0.000000    0.00462963   8 t-inv F
 -0.166667  0.166667  0.000000    0.00462963   9 t-inv F
  0.333333  0.333333  0.000000    0.00462963  10 t-inv F
  0.500000  0.333333  0.000000    0.00462963  11 t-inv F
 -0.333333  0.333333  0.000000    0.00462963  12 t-inv F
  0.500000  0.500000  0.000000    0.00462963  13 t-inv F
  0.500000  0.333333  0.166667    0.00462963  14 t-inv F
 -0.333333  0.333333  0.166667    0.00462963  15 t-inv F
 -0.333333  0.500000  0.166667    0.00462963  16 t-inv F
  0.000000  0.166667  0.000000    0.00462963   2 t-inv F
  0.000000  0.000000  0.166667    0.00462963   2 t-inv F
 -0.166667 -0.166667 -0.166667    0.00462963   2 t-inv F
 -0.166667 -0.000000 -0.000000    0.00462963   2 t-inv F
 -0.000000 -0.166667 -0.000000    0.00462963   2 t-inv F
 -0.000000 -0.000000 -0.166667    0.00462963   2 t-inv F
  0.166667  0.166667  0.166667    0.00462963   2 t-inv F
  0.000000  0.333333  0.000000    0.00462963   3 t-inv F
  0.000000  0.000000  0.333333    0.00462963   3 t-inv F
 -0.333333 -0.333333 -0.333333    0.00462963   3 t-inv F
 -0.333333 -0.000000 -0.000000    0.00462963   3 t-inv F
 -0.000000 -0.333333 -0.000000    0.00462963   3 t-inv F
 -0.000000 -0.000000 -0.333333    0.00462963   3 t-inv F
  0.333333  0.333333  0.333333    0.00462963   3 t-inv F
  0.000000  0.500000  0.000000    0.00462963   4 t-inv F
  0.000000  0.000000  0.500000    0.00462963   4 t-inv F
 -0.500000 -0.500000 -0.500000    0.00462963   4 t-inv F
  0.000000  0.166667  0.166667    0.00462963   5 t-inv F
  0.166667  0.000000  0.166667    0.00462963   5 t-inv F
 -0.166667 -0.166667  0.000000    0.00462963   5 t-inv F
 -0.166667  0.000000 -0.166667    0.00462963   5 t-inv F
  0.000000 -0.166667 -0.166667    0.00462963   5 t-inv F
  0.000000  0.333333  0.166667    0.00462963   6 t-inv F
  0.166667  0.000000  0.333333    0.00462963   6 t-inv F
 -0.166667 -0.166667  0.166667    0.00462963   6 t-inv F
 -0.333333 -0.166667 -0.333333    0.00462963   6 t-inv F
  0.166667  0.333333 -0.000000    0.00462963   6 t-inv F
  0.166667 -0.166667 -0.166667    0.00462963   6 t-inv F
 -0.333333 -0.333333 -0.166667    0.00462963   6 t-inv F
 -0.000000  0.166667  0.333333    0.00462963   6 t-inv F
 -0.166667  0.166667 -0.166667    0.00462963   6 t-inv F
 -0.166667 -0.333333 -0.333333    0.00462963   6 t-inv F
  0.333333 -0.000000  0.166667    0.00462963   6 t-inv F
 -0.333333 -0.166667 -0.000000    0.00462963   6 t-inv F
 -0.000000 -0.333333 -0.166667    0.00462963   6 t-inv F
 -0.166667 -0.000000 -0.333333    0.00462963   6 t-inv F
  0.166667  0.166667 -0.166667    0.00462963   6 t-inv F
  0.333333  0.166667  0.333333    0.00462963   6 t-inv F
 -0.166667 -0.333333  0.000000    0.00462963   6 t-inv F
 -0.166667  0.166667  0.166667    0.00462963   6 t-inv F
  0.333333  0.333333  0.166667    0.00462963   6 t-inv F
  0.000000 -0.166667 -0.333333    0.00462963   6 t-inv F
  0.166667 -0.166667  0.166667    0.00462963   6 t-inv F
  0.166667  0.333333  0.333333    0.00462963   6 t-inv F
[...]
  0.666667  0.333333  0.500000    0.00462963  15 t-inv F
 -0.333333  0.166667  0.333333    0.00462963  15 t-inv F
  0.333333 -0.333333  0.166667    0.00462963  15 t-inv F
  0.166667  0.333333 -0.333333    0.00462963  15 t-inv F
  0.166667 -0.333333  0.500000    0.00462963  16 t-inv F
  0.500000  0.166667 -0.333333    0.00462963  16 t-inv F
 -0.500000 -0.333333 -0.833333    0.00462963  16 t-inv F
  0.333333  0.833333  0.500000    0.00462963  16 t-inv F
 -0.166667 -0.500000  0.333333    0.00462963  16 t-inv F
  0.333333 -0.500000 -0.166667    0.00462963  16 t-inv F
  0.500000  0.833333  0.333333    0.00462963  16 t-inv F
  0.500000  0.333333  0.833333    0.00462963  16 t-inv F
 -0.833333 -0.500000 -0.333333    0.00462963  16 t-inv F
 -0.166667  0.333333 -0.500000    0.00462963  16 t-inv F
 -0.333333 -0.833333 -0.500000    0.00462963  16 t-inv F
|           W    W    AA    RRRRR   N    N  II  N    N   GGGG   !!!           |
|           W    W   A  A   R    R  NN   N  II  NN   N  G    G  !!!           |
|           W    W  A    A  R    R  N N  N  II  N N  N  G       !!!           |
|           W WW W  AAAAAA  RRRRR   N  N N  II  N  N N  G  GGG   !            |
|           WW  WW  A    A  R   R   N   NN  II  N   NN  G    G                |
|           W    W  A    A  R    R  N    N  II  N    N   GGGG   !!!           |
|     The number of bands has been changed from the values supplied in        |
|     the INCAR file. This is a result of running the parallel version.       |
|     The orbitals not found in the WAVECAR file will be initialized with     |
|     random numbers, which is usually adequate. For correlated               |
|     calculations, however, you should redo the groundstate calculation.     |
|     I found NBANDS = 64. Now, NBANDS = 96.                                  |

 SYSTEM =  cd Si GW0
 POSCAR =  cd Si

 Startparameter for this run:
[...]
   EPSILON    =  1.0000000 bulk dielectric constant
   LVACPOTAV  =      F  vacuum potentials using an averaging scheme for the charge density
   VACPOTFLAT =  0.1000000 required flatness to determine vacuum potential

Coulomb truncation method
  LTRUNCATE          =      F  Coulomb kernel truncation to be used
  IDIMENSIONALITY    =      3  Dimensionality of cutoff (0 molecules / 2 surfaces)
  ISURFACE           =     -1  Direction of surface normal
  LCOARSEN           =      F  Coarsen the charge grid before padding, preferred

 Exchange correlation treatment:
   GGA     = PE    functional components
   XC_C    = 1    coefficients multiplying the functional components
   VOSKOWN =     0    Vosko Wilk Nusair interpolation
   LHFCALC =     F    Hartree Fock is set to
   LHFONE  =     F    Hartree Fock one center treatment
   AEXX    =    0.0000 exact exchange contribution

 Parameters of functionals:
   PE:
     No parameter

 Van der Waals corrections
   IVDW    =     0    specifies the selected vdW correction

 Linear response parameters
   LEPSILON=     F    determine dielectric tensor
   LRPA    =     F    only Hartree local field effects (RPA)
   LNABLA  =     F    use nabla operator in PAW spheres
   LVEL    =     F    velocity operator in full k-point grid
   CSHIFT  =0.1000    complex shift for real part using Kramers Kronig
   OMEGAMAX=  -1.0    maximum frequency
   DEG_THRESHOLD= 0.2000000E-02 threshold for treating states as degnerate
   RTIME   =   -0.100 relaxation time in fs
  (WPLASMAI=    0.000 imaginary part of plasma frequency in eV, 0.658/RTIME)
   DFIELD  = 0.0000000 0.0000000 0.0000000 field for delta impulse in time

  Optional k-point grid parameters
   LKPOINTS_OPT  =     F    use optional k-point grid
   KPOINTS_OPT_MODE=     1    mode for optional k-point grid

 Orbital magnetization related:
   ORBITALMAG=     F  switch on orbital magnetization
   LCHIMAG   =     F  perturbation theory with respect to B field
   DQ        =  0.001000  dq finite difference perturbation B field
   LLRAUG    =     F  two centre corrections for induced B field
   LBONE     =     F  B-component reconstruction in AE one-centre
   LVGVCALC  =     T  calculate vGv susceptibility
   LVGVAPPL  =     F  apply vGv susceptibility instead of pGv for G=0

 Random number generation:
   RANDOM_GENERATOR = DEFAULT
   PCG_SEED         = not used

 Static calculation
 charge density and potential will be updated during run
 non-spin polarized calculation
 None: do nothing, only one-electron occupancies are recalculated
    band-by band algorithm
 perform Loewdin sub-space diagonalisation
    ordering is kept fixed
    before iterative eigenvector-optimisation
 modified Broyden-mixing scheme, WC =      100.0
 initial mixing is a Kerker type mixing with AMIX =  0.4000 and BMIX =      1.0000
 Hartree-type preconditioning will be used
 using additional bands           92
 reciprocal scheme for non local part
 use partial core corrections
 calculate Harris-corrections to forces
   (improved forces if not selfconsistent)
 use gradient corrections
 use of overlap-Matrix (Vanderbilt PP)
 Methfessel and Paxton  Order N= 1 SIGMA  =   0.20

  energy-cutoff  :      400.00
  volume of cell :       40.03
      direct lattice vectors                 reciprocal lattice vectors
     2.715000000  2.715000000  0.000000000     0.184162063  0.184162063 -0.184162063
     0.000000000  2.715000000  2.715000000    -0.184162063  0.184162063  0.184162063
     2.715000000  0.000000000  2.715000000     0.184162063 -0.184162063  0.184162063

  length of vectors
     3.839589822  3.839589822  3.839589822     0.318978049  0.318978049  0.318978049

 old parameters found on file WAVECAR:
  energy-cutoff  :      400.00
  volume of cell :       40.03
      direct lattice vectors                 reciprocal lattice vectors
     2.715000000  2.715000000  0.000000000     0.184162063  0.184162063 -0.184162063
     0.000000000  2.715000000  2.715000000    -0.184162063  0.184162063  0.184162063
     2.715000000  0.000000000  2.715000000     0.184162063 -0.184162063  0.184162063

  length of vectors

 k-points in units of 2pi/SCALE and weight: k mesh
   0.00000000  0.00000000  0.00000000       0.005
   0.16666667  0.16666667 -0.16666667       0.037
   0.33333333  0.33333333 -0.33333333       0.037
   0.50000000  0.50000000 -0.50000000       0.019
   0.00000000  0.33333333  0.00000000       0.028
   0.16666667  0.50000000 -0.16666667       0.111
   0.33333333  0.66666667 -0.33333333       0.111
  -0.50000000 -0.16666667  0.50000000       0.111
  -0.33333333  0.00000000  0.33333333       0.056
   0.00000000  0.66666667  0.00000000       0.028
   0.16666667  0.83333333 -0.16666667       0.111
  -0.66666667  0.00000000  0.66666667       0.056
   0.00000000  1.00000000  0.00000000       0.014
   0.33333333  0.66666667  0.00000000       0.111
  -0.50000000 -0.16666667  0.83333333       0.111
  -0.66666667  0.00000000  1.00000000       0.056

 k-points in reciprocal lattice and weights: k mesh
   0.00000000  0.00000000  0.00000000       0.005
   0.16666667  0.00000000  0.00000000       0.037
   0.33333333  0.00000000  0.00000000       0.037
   0.50000000  0.00000000  0.00000000       0.019
   0.16666667  0.16666667  0.00000000       0.028
   0.33333333  0.16666667  0.00000000       0.111
   0.50000000  0.16666667  0.00000000       0.111
  -0.33333333  0.16666667  0.00000000       0.111
  -0.16666667  0.16666667  0.00000000       0.056
   0.33333333  0.33333333  0.00000000       0.028
   0.50000000  0.33333333  0.00000000       0.111
  -0.33333333  0.33333333  0.00000000       0.056
   0.50000000  0.50000000  0.00000000       0.014
   0.50000000  0.33333333  0.16666667       0.111
  -0.33333333  0.33333333  0.16666667       0.111
  -0.33333333  0.50000000  0.16666667       0.056

 position of ions in fractional coordinates (direct lattice)
   0.00000000  0.00000000  0.00000000
   0.25000000  0.25000000  0.25000000

 position of ions in cartesian coordinates  (Angst):
   0.00000000  0.00000000  0.00000000
   1.35750000  1.35750000  1.35750000

 k-point     1 :   0.0000 0.0000 0.0000  plane waves:     725
 k-point     2 :   0.1667 0.0000 0.0000  plane waves:     718
 k-point     3 :   0.3333 0.0000 0.0000  plane waves:     745
 k-point     4 :   0.5000 0.0000 0.0000  plane waves:     718
 k-point     5 :   0.1667 0.1667 0.0000  plane waves:     709
 k-point     6 :   0.3333 0.1667 0.0000  plane waves:     731
 k-point     7 :   0.5000 0.1667 0.0000  plane waves:     732
 k-point     8 :  -0.3333 0.1667 0.0000  plane waves:     726
 k-point     9 :  -0.1667 0.1667 0.0000  plane waves:     732
 k-point    10 :   0.3333 0.3333 0.0000  plane waves:     717
 k-point    11 :   0.5000 0.3333 0.0000  plane waves:     729
 k-point    12 :  -0.3333 0.3333 0.0000  plane waves:     718
 k-point    13 :   0.5000 0.5000 0.0000  plane waves:     740
 k-point    14 :   0.5000 0.3333 0.1667  plane waves:     728
 k-point    15 :  -0.3333 0.3333 0.1667  plane waves:     730
 k-point    16 :  -0.3333 0.5000 0.1667  plane waves:     718

 maximum and minimum number of plane-waves per node :       745      709

 maximum number of plane-waves:       745
 maximum index in each direction:
   IXMAX=    6   IYMAX=    6   IZMAX=    6
   IXMIN=   -6   IYMIN=   -6   IZMIN=   -6

 serial   3D FFT for wavefunctions
 parallel 3D FFT for charge:
    minimum data exchange during FFTs selected (reduces bandwidth)

 Broyden mixing: mesh for mixing (old mesh)
   NGX = 13   NGY = 13   NGZ = 13
  (NGX  = 40   NGY  = 40   NGZ  = 40)
  gives a total of   2197 points

 charge density for first step will be calculated from the start-wavefunctions

 Maximum index for augmentation-charges          499 (set IRDMAX)

 initial charge from wavefunction
 First call to EWALD:  gamma=   0.518
 Maximum number of real-space cells   3x   3x   3
 Maximum number of reciprocal cells   3x   3x   3

--------------------------------------- Ionic step        1  -------------------------------------------

--------------------------------------- Iteration      1(   1)  ---------------------------------------

 eigenvalue-minimisations  :     0
 total energy-change (2. order) :-0.1498279E+02  ( 0.0000000E+00)
 number of electron       7.9999998 magnetization
 augmentation part       -0.4859640 magnetization

 Free energy of the ion-electron system (eV)
  alpha Z        PSCENC =         6.08881246
  Ewald energy   TEWEN  =      -228.56352493
  -Hartree energ DENC   =       -16.18704087
  -exchange      EXHF   =         0.00000000
  -V(xc)+E(xc)   XCENC  =       -18.10786305
  PAW double counting   =       268.77697357     -233.38314855
  entropy T*S    EENTRO =         0.00016415
  eigenvalues    EBANDS =         0.26134174
  atomic energy  EATOM  =       206.13149246
  Solvation  Ediel_sol  =         0.00000000
  free energy    TOTEN  =       -14.98279302 eV

  energy without entropy =      -14.98295717  energy(sigma->0) =      -14.98284774

 average (electrostatic) potential at core
  the test charge radii are     1.1243
  (the norm of the test charge is              1.0000)
       1 -66.6596       2 -66.6596

 E-fermi :   5.3381     XC(G=0):  -9.3270     alpha+bet :-11.6158

 WARNING: Could not determine fundamental gap because eigenvalues are not
     sorted.

 Fermi energy:         5.3380638489

 k-point     1 :       0.0000    0.0000    0.0000
  band No.  band energies     occupation
      1      -6.8233      2.00000
      2       5.1699      1.99955
      3       5.1699      1.99955
      4       5.1699      1.99955
      5       8.4884     -0.00000
      6       8.4884     -0.00000
      7       8.4884     -0.00000
      8       9.4414      0.00000
      9      13.7127      0.00000
     10      13.7127      0.00000
     11      13.3314      0.00000
     12      16.7582      0.00000
     13      16.7582      0.00000
     14      16.7582      0.00000
     15      20.4752      0.00000
     16      28.5962      0.00000
     17      28.0575      0.00000
     18      28.0575      0.00000
     19      29.1142      0.00000
     20      29.1142      0.00000
     21      30.7166      0.00000
     22      30.7166      0.00000
     23      30.7166      0.00000
     24      34.4534      0.00000
     25      34.4534      0.00000
     26      34.4534      0.00000
     27      39.7039      0.00000
     28      39.7039      0.00000
     29      39.7039      0.00000
     30      43.5713      0.00000
     31      43.5713      0.00000
     32      43.6320      0.00000
     33      45.7786      0.00000
     34      45.7786      0.00000
     35      47.5112      0.00000
     36      47.5112      0.00000
     37      47.5112      0.00000
     38      49.1953      0.00000
     39      49.1953      0.00000
     40      49.1953      0.00000
     41      49.4747      0.00000
     42      50.2830      0.00000
     43      50.2830      0.00000
     44      50.2830      0.00000
     45      50.3284      0.00000
     46      50.3284      0.00000
     47      50.3284      0.00000
     48      51.7740      0.00000
     49      51.7740      0.00000
     50      51.7740      0.00000
     51      55.7246      0.00000
     52      56.8223      0.00000
     53      56.8223      0.00000
     54      56.8223      0.00000
     55      57.2221      0.00000
     56      57.2221      0.00000
     57      57.2221      0.00000
     58      62.3023      0.00000
     59      63.2130      0.00000
     60      71.1039      0.00000
[...]
     82      76.4989      0.00000
     83      76.4989      0.00000
     84      76.4989      0.00000
     85      76.4989      0.00000
     86      76.4989      0.00000
     87      76.4989      0.00000
     88      76.4989      0.00000
     89      76.4989      0.00000
     90      76.4989      0.00000
     91      76.4989      0.00000
     92      76.4989      0.00000
     93      76.4989      0.00000
     94      76.4989      0.00000
     95      76.4989      0.00000
     96      76.4989      0.00000

[...]

 k-point    16 :      -0.3333    0.5000    0.1667
  band No.  band energies     occupation
      1      -2.5636      2.00000
      2      -2.5636      2.00000
      3       1.3767      2.00000
      4       1.3767      2.00000
      5       8.5291     -0.00000
      6       8.5291     -0.00000
      7      12.6461      0.00000
      8      12.6461      0.00000
      9      16.4780      0.00000
     10      16.4780      0.00000
     11      18.8471      0.00000
     12      18.8471      0.00000
     13      22.2173      0.00000
     14      22.2173      0.00000
     15      22.8579      0.00000
     16      22.8579      0.00000
     17      24.1378      0.00000
     18      24.1378      0.00000
     19      26.3583      0.00000
     20      26.3583      0.00000
     21      28.4184      0.00000
     22      28.4184      0.00000
     23      30.1161      0.00000
     24      30.1161      0.00000
     25      35.1083      0.00000
     26      35.1083      0.00000
     27      36.1112      0.00000
     28      36.1112      0.00000
     29      37.2576      0.00000
     30      37.2576      0.00000
     31      42.1256      0.00000
     32      42.1256      0.00000
     33      42.7471      0.00000
     34      42.7471      0.00000
     35      45.6291      0.00000
     36      45.6291      0.00000
     37      47.4488      0.00000
     38      47.4488      0.00000
     39      48.2999      0.00000
     40      48.2999      0.00000
     41      52.1815      0.00000
     42      52.1815      0.00000
     43      53.8364      0.00000
     44      53.8364      0.00000
     45      55.7923      0.00000
     46      55.7923      0.00000
     47      56.0809      0.00000
     48      56.0809      0.00000
     49      59.6656      0.00000
     50      59.6656      0.00000
     51      60.8383      0.00000
     52      60.8383      0.00000
     53      62.5434      0.00000
     54      62.5434      0.00000
     55      63.7910      0.00000
     56      63.7910      0.00000
     57      64.8038      0.00000
     58      64.8038      0.00000
     59      67.6099      0.00000
     60      67.6099      0.00000
[...]
     82      76.4989      0.00000
     83      76.4989      0.00000
     84      76.4989      0.00000
     85      76.4989      0.00000
     86      76.4989      0.00000
     87      76.4989      0.00000
     88      76.4989      0.00000
     89      76.4989      0.00000
     90      76.4989      0.00000
     91      76.4989      0.00000
     92      76.4989      0.00000
     93      76.4989      0.00000
     94      76.4989      0.00000
     95      76.4989      0.00000
     96      76.4989      0.00000

 soft charge-density along one line, spin component           1
         0         1         2         3         4         5         6         7         8         9
 total charge-density along one line

------------------------ aborting loop because EDIFF is reached ----------------------------------------

 MLWF driver (Wannier functions)
 Calling wannier_setup of wannier90 in library mode
 Wannier90 mode
 Computing MMN (overlap matrix elements)
 Writing MMN to wannier90.mmn
 Writing EIG to wannier90.eig

 LOCPROJ orbitals
  n  l  m   za        pos                       proj_x                    proj_z
  1 -3  1   1.890     0.000   0.000   0.000     1.000   0.000   0.000     0.000   0.000   1.000
  1 -3  2   1.890     0.000   0.000   0.000     1.000   0.000   0.000     0.000   0.000   1.000
  1 -3  3   1.890     0.000   0.000   0.000     1.000   0.000   0.000     0.000   0.000   1.000
  1 -3  4   1.890     0.000   0.000   0.000     1.000   0.000   0.000     0.000   0.000   1.000
  1 -3  1   1.890     0.250   0.250   0.250     1.000   0.000   0.000     0.000   0.000   1.000
  1 -3  2   1.890     0.250   0.250   0.250     1.000   0.000   0.000     0.000   0.000   1.000
  1 -3  3   1.890     0.250   0.250   0.250     1.000   0.000   0.000     0.000   0.000   1.000
  1 -3  4   1.890     0.250   0.250   0.250     1.000   0.000   0.000     0.000   0.000   1.000

 Computing AMN (projections onto localized orbitals)
 Writing AMN to wannier90.amn

 MMN -> overlap matrix elements
 AMM -> projections of Bloch states onto localized states
 UMN -> unitary matrix transforming from Bloch states to Wannier states

 Parameters of MLWF datastructure
 num_band =           96
 num_wann =            8

 Computiation of AMN
 proj = Wannier90

 Transformation from AMN to UMN
 trafo = One-shot SVD method

------------------------ end of MLWF driver reached ----------------------------------------------------

  FREE ENERGIE OF THE ION-ELECTRON SYSTEM (eV)
  free  energy   TOTEN  =       -14.98279302 eV

  energy  without entropy=      -14.98295717  energy(sigma->0) =      -14.98284774