 vasp.6.5.0 16Dec24 (build Feb 18 2025 08:57:40) complex
 executed on             LinuxGNU date 2025.05.31  16:49:22

 INCAR:
   SYSTEM = cd Si DFT ground state
   ISMEAR = -5
   EDIFF = 1E-8
   ENCUT = 400

 POTCAR:    PAW_PBE Si_GW 04May2012
 POTCAR:    PAW_PBE Si_GW 04May2012
   VRHFIN =Si: s2p2

   TITEL  = PAW_PBE Si_GW 04May2012
   POMASS =   28.085; ZVAL   =    4.000    mass and valenz
   ENMAX  =  245.345; ENMIN  =  184.009 eV

  PAW_PBE Si_GW 04May2012               :

 POSCAR: cd Si
  positions in cartesian coordinates

 exchange-correlation table for PE
   RHO(1)=    0.500       N(1)  =     2000
   RHO(2)=  100.500       N(2)  =     4000

 ion  position               nearest neighbor table
   1  0.000  0.000  0.000-   2 2.35   2 2.35   2 2.35   2 2.35
   2  0.250  0.250  0.250-   1 2.35   1 2.35   1 2.35   1 2.35

  LATTYP: Found a face centered cubic cell.
 ALAT       =     5.4300000000

  Lattice vectors:

 A1 = (   2.7150000000,   2.7150000000,   0.0000000000)
 A2 = (   0.0000000000,   2.7150000000,   2.7150000000)
 A3 = (   2.7150000000,   0.0000000000,   2.7150000000)

Analysis of symmetry for initial positions (statically):
 Subroutine PRICEL returns:
 Original cell was already a primitive cell.

 Routine SETGRP: Setting up the symmetry group for a
 face centered cubic supercell.

 Subroutine GETGRP returns: Found 48 space group operations
 (whereof 24 operations were pure point group operations)
 out of a pool of 48 trial point group operations.

The static configuration has the point symmetry T_d .
 The point group associated with its full space group is O_h .

Analysis of symmetry for dynamics (positions and initial velocities):
 Subroutine PRICEL returns:
 Original cell was already a primitive cell.

 Routine SETGRP: Setting up the symmetry group for a
 face centered cubic supercell.

 Subroutine GETGRP returns: Found 48 space group operations
 (whereof 24 operations were pure point group operations)
 out of a pool of 48 trial point group operations.

The dynamic configuration has the point symmetry T_d .
 The point group associated with its full space group is O_h .

 Subroutine INISYM returns: Found 48 space group operations
 (whereof 24 operations are pure point group operations),
 and found     1 'primitive' translations

                                     Primitive cell

  volume of cell :      40.0258

  direct lattice vectors                    reciprocal lattice vectors
     2.715000000  2.715000000  0.000000000     0.184162063  0.184162063 -0.184162063
     0.000000000  2.715000000  2.715000000    -0.184162063  0.184162063  0.184162063
     2.715000000  0.000000000  2.715000000     0.184162063 -0.184162063  0.184162063

  length of vectors
     3.839589822  3.839589822  3.839589822     0.318978049  0.318978049  0.318978049

  position of ions in fractional coordinates (direct lattice)
     0.000000000  0.000000000  0.000000000
     0.250000000  0.250000000  0.250000000

  ion indices of the primitive-cell ions
   primitive index   ion index
                 1           1
                 2           2

 KPOINTS: k mesh

Automatic generation of k-mesh.
 Grid dimensions read from file:
 generate k-points for:    6    6    6

 Generating k-lattice:

  Cartesian coordinates                     Fractional coordinates (reciprocal lattice)
     0.030693677  0.030693677 -0.030693677     0.166666667  0.000000000  0.000000000
    -0.030693677  0.030693677  0.030693677     0.000000000  0.166666667 -0.000000000
     0.030693677 -0.030693677  0.030693677    -0.000000000 -0.000000000  0.166666667

  Length of vectors
     0.053163008  0.053163008  0.053163008

  Shift w.r.t. Gamma in fractional coordinates (k-lattice)
     0.000000000  0.000000000  0.000000000

 TETIRR: Found     35 inequivalent tetrahedra from     1296

 Subroutine IBZKPT returns following result:

 Found     16 irreducible k-points:

 Following reciprocal coordinates:
            Coordinates               Weight
  0.000000  0.000000  0.000000      1.000000
  0.166667  0.000000  0.000000      8.000000
  0.333333  0.000000  0.000000      8.000000
  0.500000  0.000000  0.000000      4.000000
  0.166667  0.166667  0.000000      6.000000
  0.333333  0.166667  0.000000     24.000000
  0.500000  0.166667  0.000000     24.000000
 -0.333333  0.166667  0.000000     24.000000
 -0.166667  0.166667  0.000000     12.000000
  0.333333  0.333333  0.000000      6.000000
  0.500000  0.333333  0.000000     24.000000
 -0.333333  0.333333  0.000000     12.000000
  0.500000  0.500000  0.000000      3.000000
  0.500000  0.333333  0.166667     24.000000
 -0.333333  0.333333  0.166667     24.000000
 -0.333333  0.500000  0.166667     12.000000

 Following cartesian coordinates:
            Coordinates               Weight
  0.000000  0.000000  0.000000      1.000000
  0.166667  0.166667 -0.166667      8.000000
  0.333333  0.333333 -0.333333      8.000000
  0.500000  0.500000 -0.500000      4.000000
  0.000000  0.333333  0.000000      6.000000
  0.166667  0.500000 -0.166667     24.000000
  0.333333  0.666667 -0.333333     24.000000
 -0.500000 -0.166667  0.500000     24.000000
 -0.333333  0.000000  0.333333     12.000000
  0.000000  0.666667  0.000000      6.000000
  0.166667  0.833333 -0.166667     24.000000
 -0.666667  0.000000  0.666667     12.000000
  0.000000  1.000000  0.000000      3.000000
  0.333333  0.666667  0.000000     24.000000
 -0.500000 -0.166667  0.833333     24.000000
 -0.666667  0.000000  1.000000     12.000000

 SYSTEM =  cd Si DFT ground state
 POSCAR =  cd Si

 Startparameter for this run:
   NWRITE =      2    write-flag & timer
   PREC   = normal    normal or accurate (medium, high low for compatibility)
   ISTART =      0    job   : 0-new  1-cont  2-samecut
   ICHARG =      2    charge: 1-file 2-atom 10-const
   ISPIN  =      1    spin polarized calculation?
   LNONCOLLINEAR =      F non collinear calculations
   LSORBIT =      F    spin-orbit coupling
   INIWAV =      1    electr: 0-lowe 1-rand  2-diag
   LASPH  =      F    aspherical Exc in radial PAW
 Electronic Relaxation 1
   ENCUT  =  400.0 eV  29.40 Ry    5.42 a.u.   6.26  6.26  6.26*2*pi/ulx,y,z
   ENINI  =  400.0     initial cutoff
   ENAUG  =  413.0 eV  augmentation charge cutoff
   NELM   =     60;   NELMIN=  2; NELMDL= -5     # of ELM steps
   EDIFF  = 0.1E-07   stopping-criterion for ELM
   LREAL  =      F    real-space projection
   NLSPLINE    = F    spline interpolate recip. space projectors
   LCOMPAT=      F    compatible to vasp.4.4
   GGA_COMPAT  = T    GGA compatible to vasp.4.4-vasp.4.6
   LMAXPAW     = -100 max onsite density
   LMAXMIX     =    2 max onsite mixed and CHGCAR
   VOSKOWN=      0    Vosko Wilk Nusair interpolation
   ROPT   =    0.00000
 Ionic relaxation
   EDIFFG = 0.1E-06   stopping-criterion for IOM
   NSW    =      0    number of steps for IOM
   NBLOCK =      1;   KBLOCK =      1    inner block; outer block
   IBRION =     -1    ionic relax: 0-MD 1-quasi-New 2-CG
   NFREE  =      0    steps in history (QN), initial steepest desc. (CG)
   ISIF   =      2    stress and relaxation
   IWAVPR =     10    prediction:  0-non 1-charg 2-wave 3-comb
   ISYM   =      2    0-nonsym 1-usesym 2-fastsym
   LCORR  =      T    Harris-Foulkes like correction to forces

   POTIM  = 0.5000    time-step for ionic-motion
   TEIN   =    0.0    initial temperature
   TEBEG  =    0.0;   TEEND  =   0.0 temperature during run
   SMASS  =  -3.00    Nose mass-parameter (am)
   estimated Nose-frequenzy (Omega)   =  0.10E-29 period in steps = 0.13E+47 mass=  -0.337E-27a.u.
   SCALEE = 1.0000    scale energy and forces
   NPACO  =    256;   APACO  = 10.0  distance and # of slots for P.C.
   PSTRESS=    0.0 pullay stress

  Mass of Ions in am
   POMASS =  28.09
  Ionic Valenz
   ZVAL   =   4.00
  Atomic Wigner-Seitz radii
  virtual crystal weights
   VCA    =   1.00
   NELECT =       8.0000    total number of electrons
   NUPDOWN=      -1.0000    fix difference up-down

 DOS related values:
   EMIN   =  10.00;   EMAX   =-10.00  energy-range for DOS
   EFERMI =   0.00;   METHOD = LEGACY
   ISMEAR =    -5;   SIGMA  =   0.20  broadening in eV -4-tet -1-fermi 0-gaus
   EFERMI_NEDOS =   21; number of points for ismear=-14 and -15

 Electronic relaxation 2 (details)
   IALGO  =     38    algorithm
   LDIAG  =      T    sub-space diagonalisation (order eigenvalues)
   LSUBROT=      F    optimize rotation matrix (better conditioning)
   TURBO    =      0    0=normal 1=particle mesh
   IRESTART =      0    0=no restart 2=restart with 2 vectors
   NREBOOT  =      0    no. of reboots
   NMIN     =      0    reboot dimension
   EREF     =   0.00    reference energy to select bands
   IMIX   =      4    mixing-type and parameters
     AMIX     =   0.40;   BMIX     =  1.00
     AMIX_MAG =   1.60;   BMIX_MAG =  1.00
     AMIN     =   0.10
     WC   =   100.;   INIMIX=   1;  MIXPRE=   1;  MAXMIX= -45

 Intra band minimization:
   WEIMIN = 0.0000     energy-eigenvalue tresh-hold
   EBREAK =  0.31E-09  absolut break condition
   DEPER  =   0.30     relativ break condition

   TIME   =   0.40     timestep for ELM

  volume/ion in A,a.u.               =      20.01       135.05
  Fermi-wavevector in a.u.,A,eV,Ry     =   0.957176  1.808800 12.465458  0.916185
  Thomas-Fermi vector in A             =   2.086170

 Write flags
   LWAVE        =      T    write WAVECAR
   LDOWNSAMPLE  =      F    k-point downsampling of WAVECAR
   LCHARG       =      T    write CHGCAR
   LVTOT        =      F    write LOCPOT, total local potential
   LVHAR        =      F    write LOCPOT, Hartree potential only
   WRT_POTENTIAL= false  ! write potential to hdf5 file
   LELF         =      F    write electronic localiz. function (ELF)
   LORBIT       =      0    0 simple, 1 ext, 2 COOP (PROOUT), +10 PAW based schemes

 Python interface
   PLUGINS active      =      F    recompile with -DPLUGINS to activate

 Dipole corrections
   LMONO      =      F    monopole corrections only (constant potential shift)
   LDIPOL     =      F    correct potential (dipole corrections)
   IDIPOL     =      0    1-x, 2-y, 3-z, 4-all directions
   EPSILON    =  1.0000000 bulk dielectric constant
   LVACPOTAV  =      F  vacuum potentials using an averaging scheme for the charge density
   VACPOTFLAT =  0.1000000 required flatness to determine vacuum potential

Coulomb truncation method
  LTRUNCATE          =      F  Coulomb kernel truncation to be used
  IDIMENSIONALITY    =      3  Dimensionality of cutoff (0 molecules / 2 surfaces)
  ISURFACE           =     -1  Direction of surface normal
  LCOARSEN           =      F  Coarsen the charge grid before padding, preferred

 Exchange correlation treatment:
   GGA     = PE    functional components
   XC_C    = 1    coefficients multiplying the functional components
   VOSKOWN =     0    Vosko Wilk Nusair interpolation
   LHFCALC =     F    Hartree Fock is set to
   LHFONE  =     F    Hartree Fock one center treatment
   AEXX    =    0.0000 exact exchange contribution

 Parameters of functionals:
   PE:
     No parameter

 Van der Waals corrections
   IVDW    =     0    specifies the selected vdW correction

 Linear response parameters
   LEPSILON=     F    determine dielectric tensor
   LRPA    =     F    only Hartree local field effects (RPA)
   LNABLA  =     F    use nabla operator in PAW spheres
   LVEL    =     F    velocity operator in full k-point grid
   CSHIFT  =0.1000    complex shift for real part using Kramers Kronig
   OMEGAMAX=  -1.0    maximum frequency
   DEG_THRESHOLD= 0.2000000E-02 threshold for treating states as degnerate
   RTIME   =   -0.100 relaxation time in fs
  (WPLASMAI=    0.000 imaginary part of plasma frequency in eV, 0.658/RTIME)
   DFIELD  = 0.0000000 0.0000000 0.0000000 field for delta impulse in time

  Optional k-point grid parameters
   LKPOINTS_OPT  =     T    use optional k-point grid
   KPOINTS_OPT_MODE=     1    mode for optional k-point grid

 Orbital magnetization related:
   ORBITALMAG=     F  switch on orbital magnetization
   LCHIMAG   =     F  perturbation theory with respect to B field
   DQ        =  0.001000  dq finite difference perturbation B field
   LLRAUG    =     F  two centre corrections for induced B field
   LBONE     =     F  B-component reconstruction in AE one-centre
   LVGVCALC  =     T  calculate vGv susceptibility
   LVGVAPPL  =     F  apply vGv susceptibility instead of pGv for G=0

 Random number generation:
   RANDOM_GENERATOR = DEFAULT
   PCG_SEED         = not used

 Static calculation
 charge density and potential will be updated during run
 non-spin polarized calculation
 Variant of blocked Davidson
 Davidson routine will perform the subspace rotation
 perform sub-space diagonalisation
    after iterative eigenvector-optimisation
 modified Broyden-mixing scheme, WC =      100.0
 initial mixing is a Kerker type mixing with AMIX =  0.4000 and BMIX =      1.0000
 Hartree-type preconditioning will be used
 using additional bands            4
 reciprocal scheme for non local part
 use partial core corrections
 calculate Harris-corrections to forces   (improved forces if not selfconsistent)
 use gradient corrections
 use of overlap-Matrix (Vanderbilt PP)
 Fermi weights with tetrahedron method with Bloechl corrections

  energy-cutoff  :      400.00
  volume of cell :       40.03
      direct lattice vectors                 reciprocal lattice vectors
     2.715000000  2.715000000  0.000000000     0.184162063  0.184162063 -0.184162063
     0.000000000  2.715000000  2.715000000    -0.184162063  0.184162063  0.184162063
     2.715000000  0.000000000  2.715000000     0.184162063 -0.184162063  0.184162063

[...]

 k-points in units of 2pi/SCALE and weight: k mesh
   0.00000000  0.00000000  0.00000000       0.005
   0.16666667  0.16666667 -0.16666667       0.037
   0.33333333  0.33333333 -0.33333333       0.037
   0.50000000  0.50000000 -0.50000000       0.019
   0.00000000  0.33333333  0.00000000       0.028
   0.16666667  0.50000000 -0.16666667       0.111
   0.33333333  0.66666667 -0.33333333       0.111
  -0.50000000 -0.16666667  0.50000000       0.111
  -0.33333333  0.00000000  0.33333333       0.056
   0.00000000  0.66666667  0.00000000       0.028
   0.16666667  0.83333333 -0.16666667       0.111
  -0.66666667  0.00000000  0.66666667       0.056
   0.00000000  1.00000000  0.00000000       0.014
   0.33333333  0.66666667  0.00000000       0.111
  -0.50000000 -0.16666667  0.83333333       0.111
  -0.66666667  0.00000000  1.00000000       0.056

 k-points in reciprocal lattice and weights: k mesh
   0.00000000  0.00000000  0.00000000       0.005
   0.16666667  0.00000000  0.00000000       0.037
   0.33333333  0.00000000  0.00000000       0.037
   0.50000000  0.00000000  0.00000000       0.019
   0.16666667  0.16666667  0.00000000       0.028
   0.33333333  0.16666667  0.00000000       0.111
   0.50000000  0.16666667  0.00000000       0.111
  -0.33333333  0.16666667  0.00000000       0.111
  -0.16666667  0.16666667  0.00000000       0.056
   0.33333333  0.33333333  0.00000000       0.028
   0.50000000  0.33333333  0.00000000       0.111
  -0.33333333  0.33333333  0.00000000       0.056
   0.50000000  0.50000000  0.00000000       0.014
   0.50000000  0.33333333  0.16666667       0.111
  -0.33333333  0.33333333  0.16666667       0.111
  -0.33333333  0.50000000  0.16666667       0.056

 position of ions in fractional coordinates (direct lattice)
   0.00000000  0.00000000  0.00000000
   0.25000000  0.25000000  0.25000000

 position of ions in cartesian coordinates  (Angst):
   0.00000000  0.00000000  0.00000000
   1.35750000  1.35750000  1.35750000

 k-point     1 :   0.0000 0.0000 0.0000  plane waves:     725
 k-point     2 :   0.1667 0.0000 0.0000  plane waves:     718
 k-point     3 :   0.3333 0.0000 0.0000  plane waves:     745
 k-point     4 :   0.5000 0.0000 0.0000  plane waves:     718
 k-point     5 :   0.1667 0.1667 0.0000  plane waves:     709
 k-point     6 :   0.3333 0.1667 0.0000  plane waves:     731
 k-point     7 :   0.5000 0.1667 0.0000  plane waves:     732
 k-point     8 :  -0.3333 0.1667 0.0000  plane waves:     726
 k-point     9 :  -0.1667 0.1667 0.0000  plane waves:     732
 k-point    10 :   0.3333 0.3333 0.0000  plane waves:     717
 k-point    11 :   0.5000 0.3333 0.0000  plane waves:     729
 k-point    12 :  -0.3333 0.3333 0.0000  plane waves:     718
 k-point    13 :   0.5000 0.5000 0.0000  plane waves:     740
 k-point    14 :   0.5000 0.3333 0.1667  plane waves:     728
 k-point    15 :  -0.3333 0.3333 0.1667  plane waves:     730
 k-point    16 :  -0.3333 0.5000 0.1667  plane waves:     718

 maximum and minimum number of plane-waves per node :       745      709

 maximum number of plane-waves:       745
 maximum index in each direction:
   IXMAX=    6   IYMAX=    6   IZMAX=    6
   IXMIN=   -6   IYMIN=   -6   IZMIN=   -6

 serial   3D FFT for wavefunctions
 parallel 3D FFT for charge:
    minimum data exchange during FFTs selected (reduces bandwidth)

 Broyden mixing: mesh for mixing (old mesh)
   NGX = 13   NGY = 13   NGZ = 13
  (NGX  = 40   NGY  = 40   NGZ  = 40)
  gives a total of   2197 points

 initial charge density was supplied:
 charge density of overlapping atoms calculated
 number of electron       8.0000000 magnetization
 keeping initial charge density in first step

 Maximum index for augmentation-charges         9597 (set IRDMAX)

 First call to EWALD:  gamma=   0.518
 Maximum number of real-space cells   3x   3x   3
 Maximum number of reciprocal cells   3x   3x   3

--------------------------------------- Ionic step        1  -------------------------------------------

--------------------------------------- Iteration      1(   1)  ---------------------------------------

 BZINTS: Fermi energy:    9.123084;    8.000000 electrons
         Band energy: 0.150496E+02;  BLOECHL correction:   -0.157540

 eigenvalue-minimisations  :   280
 total energy-change (2. order) : 0.4464275E+01  (-0.3835011E+03)
 number of electron       8.0000000 magnetization
 augmentation part        8.0000000 magnetization

 Free energy of the ion-electron system (eV)
  alpha Z        PSCENC =         6.08881246
  Ewald energy   TEWEN  =      -228.56352493
  -Hartree energ DENC   =       -11.07014067
  -exchange      EXHF   =         0.00000000
  -V(xc)+E(xc)   XCENC  =       -18.88189550
  PAW double counting   =       176.77094182     -141.06103538
  entropy T*S    EENTRO =         0.00000000
  eigenvalues    EBANDS =        15.04962468
  atomic energy  EATOM  =       206.13149246
  Solvation  Ediel_sol  =         0.00000000
  free energy    TOTEN  =         4.46427494 eV

  energy without entropy =        4.46427494  energy(sigma->0) =        4.46427494

[...]

 BZINTS: Fermi energy:    5.128580;    8.000000 electrons
         Band energy:-0.221667E+00;  BLOECHL correction:    0.000000

 eigenvalue-minimisations  :   424
 total energy-change (2. order) :-0.1527129E+02  (-0.1513825E+02)
 number of electron       8.0000000 magnetization
 augmentation part        8.0000000 magnetization

[...]

 BZINTS: Fermi energy:    4.907939;    8.000000 electrons
         Band energy:-0.419372E+00;  BLOECHL correction:    0.000000

[...]

 Broyden mixing:
  rms(total) = 0.30416E+00    rms(broyden)= 0.30416E+00
  rms(prec ) = 0.87677E+00
  weight for this iteration     100.00

[...]

 eigenvalues of (default mixing * dielectric matrix)
  average eigenvalue GAMMA=   2.4429
  2.4429

[...]

 eigenvalue-minimisations  :   336
 total energy-change (2. order) : 0.2389845E-07  (-0.2266403E-09)
 number of electron       7.9999998 magnetization
 augmentation part       -0.4743628 magnetization

[...]

 Broyden mixing:
  rms(total) = 0.57318E-06    rms(broyden)= 0.57310E-06
  rms(prec ) = 0.14995E-05
  weight for this iteration     100.00

 eigenvalues of (default mixing * dielectric matrix)
  average eigenvalue GAMMA=   1.9330
  3.2340  2.9229  2.2100  2.6860  2.5046  1.0167  1.0167  0.9694  0.8366

[...]

--------------------------------------- Iteration      1(  15)  ---------------------------------------

 BZINTS: Fermi energy:    5.504484;    8.000000 electrons
         Band energy: 0.328338E+01;  BLOECHL correction:    0.000000

 eigenvalue-minimisations  :   240
 total energy-change (2. order) :-0.5422862E-09  (-0.1764917E-11)
 number of electron       7.9999998 magnetization
 augmentation part       -0.4743627 magnetization

 Free energy of the ion-electron system (eV)
  alpha Z        PSCENC =         6.08881246
  Ewald energy   TEWEN  =      -228.56352493
  -Hartree energ DENC   =       -14.98571770
  -exchange      EXHF   =         0.00000000
  -V(xc)+E(xc)   XCENC  =       -18.20719087
  PAW double counting   =       258.38700303     -222.95100894
  entropy T*S    EENTRO =         0.00000000
  eigenvalues    EBANDS =         3.28338058
  atomic energy  EATOM  =       206.13149246
  Solvation  Ediel_sol  =         0.00000000
  free energy    TOTEN  =       -10.81675392 eV

  energy without entropy =      -10.81675392  energy(sigma->0) =      -10.81675392

 average (electrostatic) potential at core
  the test charge radii are     1.1243
  (the norm of the test charge is              1.0000)
       1 -67.0299       2 -67.0299

 E-fermi :   5.5045     XC(G=0):  -9.3946     alpha+bet :-11.6158

 val. band max:        5.4736189458   @ k =   0.0000   0.0000   0.0000
 cond. band min:       6.1814764844   @ k =   0.5000   0.5000   0.0000
 fundamental gap:      0.7078575387
 Fermi energy:         5.5044835546

 k-point     1 :       0.0000    0.0000    0.0000
  band No.  band energies     occupation
      1      -6.4909      2.00000
      2       5.4736      2.00000
      3       5.4736      2.00000
      4       5.4736      2.00000
      5       8.0356      0.00000
      6       8.0356      0.00000
      7       8.0356      0.00000
      8       8.8415      0.00000

[...]

 k-point    16 :      -0.3333    0.5000    0.1667
  band No.  band energies     occupation
      1      -2.2253      2.00000
      2      -2.2253      2.00000
      3       1.8263      2.00000
      4       1.8263      2.00000
      5       8.2221      0.00000
      6       8.2221      0.00000
      7      12.2391      0.00000
      8      12.2391      0.00000

 soft charge-density along one line, spin component           1
         0         1         2         3         4         5         6         7         8         9
 total charge-density along one line

------------------------ aborting loop because EDIFF is reached ----------------------------------------

  FORCE on cell =-STRESS in cart. coord.  units (eV):
  Direction    XX          YY          ZZ          XY          YZ          ZX
  Alpha Z     6.08881     6.08881     6.08881
  Ewald     -76.18788   -76.18788   -76.18788    -0.00000     0.00000     0.00000
  Hartree     4.99524     4.99524     4.99524     0.00000     0.00000     0.00000
  E(xc)     -25.16963   -25.16963   -25.16963    -0.00000    -0.00000    -0.00000
  Local     -26.49788   -26.49788   -26.49788     0.00001     0.00001     0.00001
  n-local    73.50912    68.21811    72.73643    -1.00915     0.65858     2.21639
  augment   -11.03934   -11.03934   -11.03934    -0.00001    -0.00001    -0.00001
  Kinetic    56.75469    55.05447    58.74598    -0.92796     0.92483     3.51737
  Fock        0.00000     0.00000     0.00000     0.00000     0.00000     0.00000
  Total       0.52891     0.52891     0.52891     0.00000     0.00000     0.00000
  in kB      21.17174    21.17174    21.17174     0.00000     0.00000     0.00000

 VOLUME and BASIS-vectors are now :
  energy-cutoff  :      400.00
  volume of cell :       40.03
      direct lattice vectors                 reciprocal lattice vectors
     2.715000000  2.715000000  0.000000000     0.184162063  0.184162063 -0.184162063
     0.000000000  2.715000000  2.715000000    -0.184162063  0.184162063  0.184162063
     2.715000000  0.000000000  2.715000000     0.184162063 -0.184162063  0.184162063

  length of vectors
     3.839589822  3.839589822  3.839589822     0.318978049  0.318978049  0.318978049

 FORCES acting on ions
    electron-ion (+dipol)            ewald-force                    non-local-force                 convergence-correction
   0.784E-06 0.868E-06 0.784E-06   0.148E-15 0.231E-14 -.668E-15   0.873E-16 0.202E-16 0.318E-16   -.138E-10 -.138E-10 -.138E-10
   -.784E-06 -.868E-06 -.784E-06   -.100E-15 -.282E-14 0.881E-15   -.761E-16 -.250E-16 -.206E-16   0.138E-10 0.138E-10 0.138E-10
   0.359E-13 0.232E-13 0.384E-13   0.481E-16 -.506E-15 0.213E-15   0.112E-16 -.479E-17 0.112E-16   -.333E-14 -.641E-15 0.108E-14

 POSITION                                       TOTAL-FORCE (eV/Angst)
      0.00000      0.00000      0.00000        -0.000000     -0.000000     -0.000000
      1.35750      1.35750      1.35750         0.000000      0.000000      0.000000
    total drift:                                0.000000      0.000000      0.000000

  FREE ENERGIE OF THE ION-ELECTRON SYSTEM (eV)
  free  energy   TOTEN  =       -10.81675392 eV

  energy  without entropy=      -10.81675392  energy(sigma->0) =      -10.81675392

 writing wavefunctions
 BZINTS: Fermi energy:    5.504484;    8.000000 electrons
         Band energy: 0.328338E+01;  BLOECHL correction:    0.000000